NAME: berlin52-24-4
TYPE: TSP
COMMENT: min_cost = 5890.92
DIMENSION: 24
EDGE_WEIGHT_TYPE: EUC_2D
NODE_COORD_SECTION
1 795 645
2 1250 400
3 345 750
4 945 685
5 1605 620
6 1170 65
7 685 610
8 580 1175
9 700 500
10 1740 245
11 875 920
12 25 230
13 520 585
14 25 185
15 145 665
16 510 875
17 845 680
18 830 485
19 830 610
20 760 650
21 595 360
22 300 465
23 1320 315
24 525 1000
EOF
